Geographic Exponential Decay
20 250 255 245 37 201 190 79 212 154 202 189 224 72 247 54 74 120 277 8 157
p edge 320 1137
e 0 233 10.0
e 0 21 7.0
e 0 1 5.0
e 0 273 3.0
e 0 79 21.0
e 1 141 5.0
e 1 62 1.0
e 2 205 1.0
e 2 277 26.0
e 3 217 3.0
e 3 24 1.0
e 3 257 1.0
e 4 243 1.0
e 4 165 3.0
e 5 223 3.0
e 5 270 4.0
e 6 92 5.0
e 6 281 5.0
e 6 21 6.0
e 6 22 7.0
e 6 265 9.0
e 7 37 96.0
e 7 99 2.0
e 8 274 35.0
e 8 285 60.0
e 8 299 91.0
e 8 28 50.0
e 8 174 96.0
e 8 170 84.0
e 8 215 45.0
e 8 233 74.0
e 8 263 17.0
e 8 195 81.0
e 8 34 19.0
e 8 198 56.0
e 8 202 29.0
e 8 194 36.0
e 8 156 99.0
e 8 196 65.0
e 8 16 18.0
e 8 287 69.0
e 8 56 23.0
e 8 58 45.0
e 8 178 92.0
e 8 102 60.0
e 8 197 24.0
e 8 190 14.0
e 8 31 17.0
e 8 310 93.0
e 8 193 92.0
e 8 94 97.0
e 8 203 52.0
e 8 129 27.0
e 8 106 40.0
e 8 179 76.0
e 8 135 24.0
e 8 131 64.0
e 8 244 2.0
e 8 172 48.0
e 8 315 29.0
e 9 143 19.0
e 9 260 10.0
e 9 316 5.0
e 9 54 83.0
e 9 50 10.0
e 9 99 15.0
e 9 182 1.0
e 9 132 11.0
e 9 108 19.0
e 9 113 5.0
e 10 200 14.0
e 10 187 1.0
e 11 82 3.0
e 11 124 9.0
e 11 159 12.0
e 11 302 5.0
e 11 134 1.0
e 12 215 1.0
e 12 150 1.0
e 13 45 2.0
e 13 235 1.0
e 14 157 74.0
e 14 108 1.0
e 14 96 1.0
e 15 315 9.0
e 15 109 7.0
e 16 291 1.0
e 17 307 1.0
e 17 306 1.0
e 17 104 1.0
e 18 66 2.0
e 18 101 2.0
e 18 148 1.0
e 19 13 1.0
e 19 86 5.0
e 20 280 6.0
e 20 268 5.0
e 20 240 4.0
e 22 195 1.0
e 23 18 5.0
e 23 277 49.0
e 24 294 20.0
e 24 273 17.0
e 24 244 17.0
e 24 71 17.0
e 24 112 14.0
e 24 287 1.0
e 24 212 45.0
e 24 146 6.0
e 24 295 24.0
e 25 216 1.0
e 25 244 2.0
e 26 313 1.0
e 26 194 2.0
e 27 255 21.0
e 27 188 2.0
e 27 262 2.0
e 28 127 3.0
e 29 6 6.0
e 29 65 2.0
e 30 77 26.0
e 30 100 48.0
e 30 302 14.0
e 30 220 10.0
e 30 156 30.0
e 30 175 17.0
e 30 295 36.0
e 30 316 33.0
e 30 111 34.0
e 30 286 11.0
e 30 135 1.0
e 30 155 12.0
e 30 310 12.0
e 30 46 5.0
e 30 227 34.0
e 30 131 19.0
e 30 305 31.0
e 30 122 25.0
e 30 308 29.0
e 31 256 6.0
e 32 115 11.0
e 32 282 6.0
e 33 237 1.0
e 33 183 1.0
e 34 90 4.0
e 35 120 100.0
e 35 25 3.0
e 35 130 5.0
e 36 229 1.0
e 36 142 2.0
e 37 128 40.0
e 37 209 27.0
e 37 277 77.0
e 37 258 95.0
e 37 104 98.0
e 37 229 36.0
e 37 129 12.0
e 37 241 7.0
e 37 75 16.0
e 37 290 61.0
e 37 287 78.0
e 37 210 53.0
e 37 220 59.0
e 37 112 38.0
e 37 173 1.0
e 37 145 100.0
e 37 156 11.0
e 37 279 89.0
e 37 217 27.0
e 37 123 93.0
e 37 179 83.0
e 37 275 64.0
e 37 226 46.0
e 37 291 100.0
e 37 90 65.0
e 37 260 82.0
e 37 98 83.0
e 37 266 33.0
e 37 119 75.0
e 37 250 97.0
e 37 192 12.0
e 37 127 42.0
e 37 41 32.0
e 37 163 16.0
e 37 293 30.0
e 37 205 70.0
e 38 124 1.0
e 38 104 1.0
e 39 22 3.0
e 39 212 88.0
e 39 156 1.0
e 40 19 1.0
e 40 218 4.0
e 40 209 2.0
e 41 167 1.0
e 42 210 2.0
e 42 148 2.0
e 43 16 1.0
e 43 97 1.0
e 44 274 1.0
e 44 81 1.0
e 44 233 1.0
e 45 143 1.0
e 46 191 2.0
e 46 66 2.0
e 47 116 1.0
e 47 213 3.0
e 48 294 3.0
e 48 129 7.0
e 48 97 1.0
e 48 158 1.0
e 48 83 10.0
e 49 113 1.0
e 49 74 40.0
e 50 296 1.0
e 50 264 5.0
e 51 162 6.0
e 51 87 3.0
e 51 97 1.0
e 51 234 6.0
e 51 206 9.0
e 52 118 4.0
e 52 275 1.0
e 53 251 1.0
e 53 307 1.0
e 54 143 22.0
e 54 231 36.0
e 54 224 76.0
e 54 146 38.0
e 54 61 9.0
e 54 209 68.0
e 54 8 60.0
e 54 102 97.0
e 54 187 95.0
e 54 85 34.0
e 54 292 8.0
e 54 38 83.0
e 54 217 51.0
e 54 198 96.0
e 54 98 18.0
e 54 41 55.0
e 54 305 71.0
e 54 161 20.0
e 54 252 39.0
e 54 72 44.0
e 54 106 58.0
e 54 42 65.0
e 54 120 58.0
e 54 158 55.0
e 54 14 62.0
e 54 18 57.0
e 54 3 30.0
e 54 108 44.0
e 54 23 13.0
e 54 228 87.0
e 54 271 26.0
e 54 75 21.0
e 54 66 38.0
e 54 10 87.0
e 54 5 25.0
e 54 97 86.0
e 55 139 5.0
e 55 231 1.0
e 56 73 3.0
e 57 185 3.0
e 57 278 1.0
e 57 51 11.0
e 58 173 9.0
e 58 121 8.0
e 58 231 10.0
e 58 284 9.0
e 59 196 16.0
e 59 29 2.0
e 59 245 89.0
e 60 58 12.0
e 60 167 2.0
e 61 75 8.0
e 61 106 4.0
e 62 228 2.0
e 63 121 1.0
e 63 177 4.0
e 64 190 23.0
e 64 193 4.0
e 64 131 1.0
e 65 63 2.0
e 67 94 3.0
e 67 301 6.0
e 68 257 4.0
e 68 26 4.0
e 68 234 6.0
e 69 37 100.0
e 69 178 1.0
e 70 121 4.0
e 70 283 2.0
e 70 26 2.0
e 71 58 9.0
e 71 191 5.0
e 72 307 62.0
e 72 168 58.0
e 72 254 1.0
e 72 88 89.0
e 72 4 59.0
e 72 288 12.0
e 72 148 81.0
e 72 3 25.0
e 72 18 86.0
e 72 194 41.0
e 72 57 97.0
e 72 239 69.0
e 72 78 37.0
e 72 162 38.0
e 72 80 81.0
e 72 230 98.0
e 72 6 48.0
e 72 51 78.0
e 72 198 71.0
e 72 219 84.0
e 72 278 9.0
e 72 48 67.0
e 72 108 52.0
e 72 30 34.0
e 72 103 62.0
e 72 227 97.0
e 72 84 23.0
e 72 196 72.0
e 72 91 64.0
e 72 26 69.0
e 72 252 60.0
e 72 13 56.0
e 72 11 76.0
e 72 220 10.0
e 72 50 20.0
e 72 176 13.0
e 73 301 1.0
e 74 27 85.0
e 74 318 2.0
e 74 61 28.0
e 74 140 65.0
e 74 314 19.0
e 74 91 86.0
e 74 147 26.0
e 74 225 93.0
e 74 272 42.0
e 74 187 46.0
e 74 302 47.0
e 74 258 25.0
e 74 75 59.0
e 74 250 11.0
e 74 281 87.0
e 74 63 29.0
e 74 276 76.0
e 74 43 9.0
e 74 148 53.0
e 74 182 5.0
e 74 32 85.0
e 74 165 89.0
e 74 122 100.0
e 74 76 95.0
e 74 315 20.0
e 74 62 96.0
e 74 56 69.0
e 74 46 70.0
e 74 226 11.0
e 74 270 84.0
e 74 10 97.0
e 74 55 90.0
e 74 279 17.0
e 74 106 92.0
e 74 152 49.0
e 74 86 89.0
e 75 162 8.0
e 76 304 8.0
e 76 162 3.0
e 76 67 5.0
e 76 21 10.0
e 77 148 6.0
e 77 48 19.0
e 77 182 21.0
e 77 153 18.0
e 77 258 2.0
e 77 166 6.0
e 77 173 18.0
e 77 61 7.0
e 77 205 3.0
e 78 100 5.0
e 79 100 38.0
e 79 311 59.0
e 79 3 18.0
e 79 58 76.0
e 79 69 98.0
e 79 158 6.0
e 79 52 62.0
e 79 35 92.0
e 79 199 17.0
e 79 242 90.0
e 79 298 34.0
e 79 109 97.0
e 79 318 14.0
e 79 136 94.0
e 79 20 29.0
e 79 94 8.0
e 79 300 37.0
e 79 54 82.0
e 79 302 73.0
e 79 301 31.0
e 79 34 77.0
e 79 223 91.0
e 79 103 56.0
e 79 191 45.0
e 79 169 95.0
e 79 203 53.0
e 79 18 33.0
e 79 317 49.0
e 79 313 18.0
e 79 288 34.0
e 79 53 33.0
e 79 224 30.0
e 79 307 35.0
e 79 247 58.0
e 79 37 34.0
e 79 64 5.0
e 80 12 1.0
e 81 88 1.0
e 82 182 4.0
e 83 86 2.0
e 83 65 1.0
e 84 222 2.0
e 85 264 10.0
e 85 267 7.0
e 85 87 5.0
e 85 187 4.0
e 88 120 62.0
e 89 175 2.0
e 89 194 3.0
e 90 81 3.0
e 92 65 2.0
e 93 139 14.0
e 93 293 36.0
e 93 301 23.0
e 93 68 6.0
e 93 42 6.0
e 93 141 24.0
e 93 182 5.0
e 93 109 9.0
e 93 59 17.0
e 93 123 20.0
e 95 199 1.0
e 95 135 2.0
e 96 17 5.0
e 98 179 1.0
e 101 225 4.0
e 101 122 1.0
e 102 235 4.0
e 103 258 9.0
e 103 297 5.0
e 103 275 7.0
e 105 313 2.0
e 105 152 2.0
e 105 158 1.0
e 107 57 6.0
e 107 84 2.0
e 109 98 13.0
e 109 316 7.0
e 109 64 1.0
e 109 180 13.0
e 109 143 5.0
e 109 145 10.0
e 109 117 19.0
e 110 303 1.0
e 110 249 1.0
e 111 49 6.0
e 111 173 1.0
e 111 118 4.0
e 111 208 1.0
e 114 151 5.0
e 114 213 10.0
e 114 291 10.0
e 114 11 4.0
e 114 24 6.0
e 115 249 11.0
e 115 70 7.0
e 115 288 2.0
e 115 280 9.0
e 116 273 1.0
e 117 252 2.0
e 118 202 62.0
e 119 315 10.0
e 119 74 20.0
e 120 302 99.0
e 120 125 49.0
e 120 59 86.0
e 120 82 30.0
e 120 313 84.0
e 120 297 55.0
e 120 126 21.0
e 120 99 30.0
e 120 278 35.0
e 120 230 37.0
e 120 229 24.0
e 120 238 84.0
e 120 94 85.0
e 120 55 72.0
e 120 62 70.0
e 120 180 99.0
e 120 136 70.0
e 120 72 92.0
e 120 43 11.0
e 120 295 57.0
e 120 66 14.0
e 120 184 14.0
e 120 153 21.0
e 120 318 36.0
e 120 109 44.0
e 120 232 24.0
e 120 44 1.0
e 120 160 27.0
e 120 271 45.0
e 120 56 98.0
e 120 298 20.0
e 120 60 12.0
e 120 154 80.0
e 120 242 12.0
e 124 116 8.0
e 124 241 2.0
e 124 81 2.0
e 125 283 1.0
e 126 24 5.0
e 128 258 7.0
e 128 35 20.0
e 128 194 21.0
e 128 97 22.0
e 128 192 4.0
e 128 217 23.0
e 128 244 24.0
e 128 68 2.0
e 128 13 16.0
e 130 93 1.0
e 132 181 2.0
e 133 3 5.0
e 133 103 2.0
e 134 188 1.0
e 134 220 1.0
e 137 305 1.0
e 137 288 2.0
e 138 209 1.0
e 138 99 1.0
e 139 313 3.0
e 139 52 14.0
e 139 60 7.0
e 139 298 18.0
e 139 207 15.0
e 139 255 60.0
e 139 316 19.0
e 139 253 42.0
e 140 273 2.0
e 141 309 4.0
e 142 25 3.0
e 144 142 1.0
e 144 284 11.0
e 144 61 5.0
e 147 223 8.0
e 149 197 1.0
e 149 298 7.0
e 150 86 4.0
e 151 49 2.0
e 154 298 73.0
e 154 198 83.0
e 154 93 77.0
e 154 15 61.0
e 154 242 74.0
e 154 230 7.0
e 154 236 70.0
e 154 133 2.0
e 154 19 35.0
e 154 38 33.0
e 154 311 66.0
e 154 27 70.0
e 154 255 32.0
e 154 184 61.0
e 154 183 28.0
e 154 117 50.0
e 154 237 27.0
e 154 293 88.0
e 154 203 6.0
e 154 173 2.0
e 154 116 75.0
e 154 94 86.0
e 154 50 5.0
e 154 245 55.0
e 154 307 59.0
e 154 227 59.0
e 154 161 91.0
e 154 317 5.0
e 154 5 10.0
e 154 267 12.0
e 154 272 41.0
e 154 0 46.0
e 154 123 28.0
e 154 247 28.0
e 154 30 5.0
e 154 231 28.0
e 155 230 8.0
e 157 16 31.0
e 157 286 74.0
e 157 205 50.0
e 157 102 1.0
e 157 110 90.0
e 157 69 18.0
e 157 262 76.0
e 157 291 54.0
e 157 42 100.0
e 157 86 68.0
e 157 184 49.0
e 157 101 58.0
e 157 287 69.0
e 157 43 12.0
e 157 213 5.0
e 157 179 25.0
e 157 258 10.0
e 157 296 1.0
e 157 247 61.0
e 157 96 23.0
e 157 248 56.0
e 157 233 10.0
e 157 64 77.0
e 157 181 83.0
e 157 283 76.0
e 157 44 15.0
e 157 243 96.0
e 157 117 22.0
e 157 175 16.0
e 157 99 16.0
e 157 6 63.0
e 157 31 87.0
e 157 307 20.0
e 157 26 30.0
e 157 206 75.0
e 157 139 48.0
e 159 279 1.0
e 159 155 2.0
e 160 98 4.0
e 163 33 2.0
e 163 230 3.0
e 164 280 1.0
e 164 148 5.0
e 164 101 3.0
e 165 33 2.0
e 166 75 8.0
e 168 303 2.0
e 169 102 4.0
e 169 20 2.0
e 169 139 24.0
e 169 162 6.0
e 170 81 1.0
e 171 57 1.0
e 171 81 5.0
e 171 37 63.0
e 172 294 4.0
e 172 300 5.0
e 174 228 2.0
e 176 257 2.0
e 177 28 5.0
e 177 105 4.0
e 180 224 29.0
e 181 7 3.0
e 185 316 4.0
e 185 161 3.0
e 186 306 1.0
e 186 121 2.0
e 189 304 95.0
e 189 187 80.0
e 189 181 100.0
e 189 78 47.0
e 189 117 75.0
e 189 264 20.0
e 189 204 28.0
e 189 297 66.0
e 189 54 73.0
e 189 101 41.0
e 189 266 86.0
e 189 40 77.0
e 189 23 43.0
e 189 193 91.0
e 189 205 32.0
e 189 145 9.0
e 189 265 15.0
e 189 188 20.0
e 189 286 67.0
e 189 201 89.0
e 189 206 43.0
e 189 199 11.0
e 189 11 38.0
e 189 69 18.0
e 189 12 89.0
e 189 153 86.0
e 189 29 2.0
e 189 17 62.0
e 189 228 46.0
e 189 128 18.0
e 189 229 66.0
e 189 124 65.0
e 189 129 19.0
e 189 310 93.0
e 189 316 81.0
e 189 318 94.0
e 189 285 70.0
e 190 82 4.0
e 190 1 70.0
e 190 189 33.0
e 190 123 12.0
e 190 208 74.0
e 190 50 85.0
e 190 219 91.0
e 190 228 2.0
e 190 207 44.0
e 190 124 31.0
e 190 103 32.0
e 190 150 46.0
e 190 18 36.0
e 190 128 67.0
e 190 115 5.0
e 190 288 96.0
e 190 0 47.0
e 190 95 79.0
e 190 194 18.0
e 190 142 5.0
e 190 89 2.0
e 190 137 45.0
e 190 74 35.0
e 190 129 27.0
e 190 52 55.0
e 190 272 45.0
e 190 229 90.0
e 190 277 9.0
e 190 24 95.0
e 190 72 64.0
e 190 206 5.0
e 190 102 51.0
e 190 170 48.0
e 190 230 41.0
e 190 306 99.0
e 196 311 13.0
e 196 181 17.0
e 196 192 14.0
e 196 209 21.0
e 196 3 5.0
e 196 270 6.0
e 196 259 1.0
e 200 136 14.0
e 200 173 15.0
e 200 138 9.0
e 200 134 4.0
e 200 32 14.0
e 200 257 3.0
e 200 304 1.0
e 200 193 18.0
e 200 270 21.0
e 201 27 23.0
e 201 110 98.0
e 201 69 88.0
e 201 262 1.0
e 201 208 84.0
e 201 190 55.0
e 201 125 66.0
e 201 219 29.0
e 201 135 6.0
e 201 111 75.0
e 201 216 85.0
e 201 57 76.0
e 201 269 71.0
e 201 95 9.0
e 201 12 20.0
e 201 107 9.0
e 201 112 45.0
e 201 229 7.0
e 201 279 37.0
e 201 48 42.0
e 201 73 9.0
e 201 28 48.0
e 201 104 1.0
e 201 36 39.0
e 201 234 48.0
e 201 271 58.0
e 201 315 67.0
e 201 213 65.0
e 201 20 1.0
e 201 274 47.0
e 201 100 76.0
e 201 239 85.0
e 201 37 44.0
e 201 46 34.0
e 201 145 93.0
e 201 91 88.0
e 202 221 13.0
e 202 241 50.0
e 202 115 35.0
e 202 212 69.0
e 202 122 26.0
e 202 127 81.0
e 202 225 68.0
e 202 302 44.0
e 202 209 35.0
e 202 47 56.0
e 202 262 16.0
e 202 299 45.0
e 202 104 92.0
e 202 234 32.0
e 202 283 2.0
e 202 173 45.0
e 202 102 74.0
e 202 11 7.0
e 202 177 87.0
e 202 142 45.0
e 202 4 63.0
e 202 273 23.0
e 202 59 87.0
e 202 305 31.0
e 202 297 29.0
e 202 101 11.0
e 202 300 12.0
e 202 110 64.0
e 202 312 18.0
e 202 116 95.0
e 202 201 89.0
e 202 255 77.0
e 202 181 55.0
e 202 238 11.0
e 202 318 59.0
e 204 180 3.0
e 204 224 43.0
e 206 234 2.0
e 207 35 7.0
e 207 191 4.0
e 207 253 3.0
e 211 164 4.0
e 211 307 1.0
e 212 286 54.0
e 212 311 25.0
e 212 152 3.0
e 212 302 30.0
e 212 210 15.0
e 212 290 68.0
e 212 306 39.0
e 212 149 96.0
e 212 81 92.0
e 212 289 96.0
e 212 284 37.0
e 212 83 10.0
e 212 5 53.0
e 212 279 67.0
e 212 19 59.0
e 212 216 22.0
e 212 256 19.0
e 212 223 12.0
e 212 218 84.0
e 212 78 30.0
e 212 257 38.0
e 212 56 17.0
e 212 175 53.0
e 212 99 46.0
e 212 139 80.0
e 212 197 28.0
e 212 220 46.0
e 212 298 81.0
e 212 192 89.0
e 212 236 73.0
e 212 217 17.0
e 212 28 35.0
e 212 135 64.0
e 212 170 21.0
e 214 193 1.0
e 214 138 6.0
e 214 288 5.0
e 221 160 6.0
e 221 5 8.0
e 221 75 5.0
e 221 244 1.0
e 222 94 3.0
e 223 133 20.0
e 223 191 16.0
e 223 9 5.0
e 223 31 4.0
e 223 113 6.0
e 223 8 80.0
e 224 165 87.0
e 224 55 5.0
e 224 140 82.0
e 224 123 28.0
e 224 219 30.0
e 224 220 84.0
e 224 212 51.0
e 224 296 70.0
e 224 243 8.0
e 224 7 69.0
e 224 318 62.0
e 224 152 39.0
e 224 306 54.0
e 224 132 100.0
e 224 134 30.0
e 224 205 96.0
e 224 253 13.0
e 224 155 83.0
e 224 95 98.0
e 224 111 34.0
e 224 269 76.0
e 224 69 27.0
e 224 256 50.0
e 224 61 85.0
e 224 92 62.0
e 224 60 92.0
e 224 254 15.0
e 224 264 27.0
e 224 311 61.0
e 224 172 80.0
e 224 297 23.0
e 224 137 71.0
e 224 195 33.0
e 232 281 5.0
e 232 93 6.0
e 237 253 25.0
e 238 263 1.0
e 240 151 3.0
e 245 184 41.0
e 245 19 53.0
e 245 254 30.0
e 245 40 88.0
e 245 297 30.0
e 245 70 90.0
e 245 146 55.0
e 245 171 46.0
e 245 65 83.0
e 245 60 98.0
e 245 301 18.0
e 245 249 17.0
e 245 277 67.0
e 245 135 97.0
e 245 102 26.0
e 245 12 12.0
e 245 215 42.0
e 245 66 16.0
e 245 41 54.0
e 245 221 15.0
e 245 236 69.0
e 245 153 9.0
e 245 161 91.0
e 245 20 33.0
e 245 311 30.0
e 245 128 85.0
e 245 285 4.0
e 245 210 98.0
e 245 61 9.0
e 245 115 31.0
e 245 243 84.0
e 245 121 32.0
e 245 75 97.0
e 245 14 52.0
e 245 119 32.0
e 246 56 2.0
e 246 117 1.0
e 247 220 40.0
e 247 143 63.0
e 247 251 89.0
e 247 305 4.0
e 247 239 39.0
e 247 146 90.0
e 247 49 89.0
e 247 88 26.0
e 247 127 3.0
e 247 214 59.0
e 247 301 83.0
e 247 234 75.0
e 247 282 90.0
e 247 69 67.0
e 247 306 67.0
e 247 174 99.0
e 247 222 68.0
e 247 276 94.0
e 247 108 93.0
e 247 119 91.0
e 247 283 46.0
e 247 70 90.0
e 247 36 74.0
e 247 89 35.0
e 247 32 57.0
e 247 33 91.0
e 247 176 18.0
e 247 137 95.0
e 247 92 78.0
e 247 207 38.0
e 247 38 74.0
e 247 257 5.0
e 247 277 21.0
e 247 279 68.0
e 248 95 2.0
e 250 22 1.0
e 250 25 55.0
e 250 286 30.0
e 250 79 56.0
e 250 66 14.0
e 250 273 20.0
e 250 165 26.0
e 250 57 85.0
e 250 166 3.0
e 250 33 62.0
e 250 106 50.0
e 250 108 10.0
e 250 179 57.0
e 250 289 64.0
e 250 6 81.0
e 250 126 66.0
e 250 222 19.0
e 250 154 41.0
e 250 315 13.0
e 250 265 28.0
e 250 266 3.0
e 250 278 8.0
e 250 48 19.0
e 250 297 80.0
e 250 54 67.0
e 250 287 33.0
e 250 230 55.0
e 250 109 20.0
e 250 189 64.0
e 250 55 82.0
e 250 38 93.0
e 250 293 26.0
e 250 313 19.0
e 250 192 24.0
e 250 151 72.0
e 253 73 7.0
e 253 306 32.0
e 253 193 15.0
e 253 102 46.0
e 253 36 30.0
e 253 11 37.0
e 253 26 49.0
e 253 110 48.0
e 253 268 14.0
e 253 143 27.0
e 253 277 43.0
e 253 262 14.0
e 253 259 34.0
e 253 135 22.0
e 253 313 9.0
e 255 123 53.0
e 255 76 92.0
e 255 136 30.0
e 255 83 53.0
e 255 209 77.0
e 255 93 86.0
e 255 303 65.0
e 255 201 64.0
e 255 165 67.0
e 255 101 96.0
e 255 158 1.0
e 255 231 77.0
e 255 36 36.0
e 255 63 60.0
e 255 102 11.0
e 255 300 61.0
e 255 23 8.0
e 255 40 66.0
e 255 109 69.0
e 255 279 98.0
e 255 270 2.0
e 255 181 46.0
e 255 174 11.0
e 255 34 64.0
e 255 125 96.0
e 255 35 6.0
e 255 210 74.0
e 255 97 79.0
e 255 10 30.0
e 255 57 27.0
e 255 289 6.0
e 255 216 13.0
e 255 28 94.0
e 261 171 1.0
e 261 238 2.0
e 267 277 1.0
e 269 99 1.0
e 275 93 1.0
e 275 110 9.0
e 276 168 5.0
e 277 50 89.0
e 277 8 16.0
e 277 122 25.0
e 277 149 9.0
e 277 189 86.0
e 277 40 35.0
e 277 318 90.0
e 277 65 58.0
e 277 3 28.0
e 277 18 53.0
e 277 312 93.0
e 277 141 14.0
e 277 221 4.0
e 277 124 14.0
e 277 89 77.0
e 277 152 40.0
e 277 25 50.0
e 277 19 27.0
e 277 117 1.0
e 277 192 76.0
e 277 137 92.0
e 277 90 84.0
e 277 64 33.0
e 277 311 36.0
e 277 9 34.0
e 277 7 56.0
e 277 35 36.0
e 277 246 75.0
e 277 85 69.0
e 282 220 5.0
e 284 62 7.0
e 284 300 8.0
e 292 0 12.0
e 293 307 27.0
e 293 225 30.0
e 293 297 36.0
e 293 308 47.0
e 293 174 11.0
e 293 139 42.0
e 293 123 18.0
e 293 120 16.0
e 293 59 43.0
e 293 309 48.0
e 293 193 39.0
e 293 32 18.0
e 293 155 2.0
e 293 317 48.0
e 293 238 31.0
e 309 192 2.0
e 314 230 6.0
e 319 105 1.0
e 319 140 1.0
e 319 132 2.0
